1 3 100 284362.37
1 3 200 309959.00
1 3 300 293668.08
2 3 100 369755.36
2 3 200 373356.07
2 3 300 379464.75
3 3 100 411274.55
3 3 200 424776.19
3 3 300 419312.26
4 3 100 434005.27
4 3 200 463019.12
4 3 300 438785.54
5 3 100 345351.32
5 3 200 363289.08
5 3 300 362831.63
